Translating instance to solver...

Set parameter TimeLimit to value 28800
Gurobi Optimizer version 11.0.2 build v11.0.2rc0 (linux64 - "Ubuntu 22.04.4 LTS")

CPU model: Intel(R) Xeon(R) Gold 5120 CPU @ 2.20GHz, instruction set [SSE2|AVX|AVX2|AVX512]
Thread count: 28 physical cores, 56 logical processors, using up to 28 threads

Academic license 2463511 - for non-commercial use only - registered to lu___@cefet-rj.br
Optimize a model with 61055 rows, 30653 columns and 140553 nonzeros
Model fingerprint: 0x483d9d8b
Variable types: 1 continuous, 30652 integer (30600 binary)
Coefficient statistics:
  Matrix range     [1e+00, 1e+05]
  Objective range  [3e-01, 8e-01]
  Bounds range     [1e+00, 5e+01]
  RHS range        [1e+00, 1e+02]
Presolve removed 51017 rows and 26538 columns
Presolve time: 0.71s
Presolved: 10038 rows, 4115 columns, 27732 nonzeros
Variable types: 0 continuous, 4115 integer (4064 binary)
Found heuristic solution: objective 37.7945500

Root relaxation: objective 2.623698e+00, 1180 iterations, 0.05 seconds (0.06 work units)

    Nodes    |    Current Node    |     Objective Bounds      |     Work
 Expl Unexpl |  Obj  Depth IntInf | Incumbent    BestBd   Gap | It/Node Time

     0     0    2.62370    0  173   37.79455    2.62370  93.1%     -    0s
H    0     0                       6.0471280    2.62370  56.6%     -    1s
     0     0    2.67356    0   89    6.04713    2.67356  55.8%     -    1s
H    0     0                       4.5353460    2.69135  40.7%     -    1s
     0     0    2.71539    0  101    4.53535    2.71539  40.1%     -    1s
     0     0    2.74836    0  274    4.53535    2.74836  39.4%     -    1s
     0     0    2.76485    0  235    4.53535    2.76485  39.0%     -    1s
     0     0    2.83396    0  278    4.53535    2.83396  37.5%     -    1s
     0     0    2.86541    0  266    4.53535    2.86541  36.8%     -    1s
     0     0    2.87946    0  545    4.53535    2.87946  36.5%     -    2s
     0     0    2.87946    0  503    4.53535    2.87946  36.5%     -    2s
     0     0    2.87946    0  144    4.53535    2.87946  36.5%     -    3s
     0     0    2.87946    0  427    4.53535    2.87946  36.5%     -    4s
H    0     0                       3.9412370    2.87946  26.9%     -    4s
     0     0    2.87946    0  473    3.94124    2.87946  26.9%     -    4s
     0     0    2.87946    0  522    3.94124    2.87946  26.9%     -    4s
     0     0    2.87946    0  416    3.94124    2.87946  26.9%     -    4s
     0     0    2.87946    0  546    3.94124    2.87946  26.9%     -    4s
     0     0    2.87946    0  917    3.94124    2.87946  26.9%     -    5s
     0     0    2.88713    0  896    3.94124    2.88713  26.7%     -    5s
     0     0    2.91100    0  895    3.94124    2.91100  26.1%     -    5s
     0     0    2.97345    0 1101    3.94124    2.97345  24.6%     -    6s
     0     0    2.97345    0 1052    3.94124    2.97345  24.6%     -    6s
H    0     0                       3.6353460    2.97345  18.2%     -    7s
     0     2    2.97345    0 1046    3.63535    2.97345  18.2%     -    7s
H   35    58                       3.3294550    2.97345  10.7%   935    9s
    87    91    3.08874    7  268    3.32946    2.97345  10.7%   729   10s

Cutting planes:
  Learned: 267
  Gomory: 4
  Implied bound: 127
  Clique: 5
  MIR: 107
  RLT: 223
  Relax-and-lift: 51
  BQP: 313

Explored 1071 nodes (209710 simplex iterations) in 14.20 seconds (12.01 work units)
Thread count was 28 (of 56 available processors)

Solution count 6: 3.32946 3.63535 3.94124 ... 37.7945

Optimal solution found (tolerance 1.00e-04)
Best objective 3.329455000000e+00, best bound 3.329455000000e+00, gap 0.0000%

Solver Wallclock Time (for this epsilon): 14.206547021865845 s
Python wallclock Time (for this epsilon): 18.449785470962524 s


Total Elapsed Time (since program call): 338.90870118141174 s

Results:

I = 3.3294550000000003 mA
C = 100.0 points
C ~= 40.0 km^2

Minimum Epsilon for this instance = 10
Maximum Epsilon for this instance = 100

Current Epsilon = 100


Preprocessing Time (for this epsilon): 0.008472204208374023 s


Updated solution vectors:
sol_I = [-0.9176730000000001,-1.223564,-1.367673,-1.367673,-1.367673,-1.673564,-1.817673,-2.123564,-2.5735639999999997,-3.3294550000000003]
sol_C = [12.0,21.0,41.0,40.0,53.0,61.0,70.0,80.0,90.0,100.0]
sol_eps = [10,20,30,40,50,60,70,80,90,100]
sol_gap = [0.0,0.0,0.0,3.0374999981930273e-07,1.9124999717234914e-07,0.0,0.0,0.0,0.0,0.0]
